(set-info :source |printed by MathSAT|)
(declare-fun call__main_.call_hypothese2.flby () Bool)
(declare-fun flby () Bool)
(declare-fun call__main_.retard1.next () Bool)
(declare-fun call__main_.flby2 () Int)
(declare-fun call__main_.call_hypothese2.ok () Bool)
(declare-fun call__main_.ite2.next () Int)
(declare-fun call__main_.call_controleur.diff.next () Int)
(declare-fun call__main_.call_controleur2.ite2.next () Bool)
(declare-fun call__main_.call_hypothese2.ite4.next () Int)
(declare-fun retard0.next () Bool)
(declare-fun call__main_.call_controleur2.diff.next () Int)
(declare-fun call__main_.call_controleur.flby.next () Bool)
(declare-fun call__main_.flby () Int)
(declare-fun call__main_.ite3.next () Int)
(declare-fun call__main_.diff0.next () Int)
(declare-fun call__main_.nB0 () Int)
(declare-fun flby.next () Bool)
(declare-fun call__main_.diff0 () Int)
(declare-fun call__main_.call_hypothese.c.next () Int)
(declare-fun call__main_.call_controleur.ite2.next () Bool)
(declare-fun call__main_.call_controleur2.flby2.next () Bool)
(declare-fun call__main_.ast.next () Bool)
(declare-fun nB1.next () Int)
(declare-fun diff1 () Int)
(declare-fun call__main_.call_hypothese2.ite.next () Bool)
(declare-fun nS.next () Int)
(declare-fun call__main_.avance1 () Bool)
(declare-fun nB1 () Int)
(declare-fun call__main_.call_hypothese.flby2.next () Int)
(declare-fun _OK_ () Bool)
(declare-fun call__main_.call_hypothese.ite.next () Bool)
(declare-fun call__main_.diff1 () Int)
(declare-fun diff1.next () Int)
(declare-fun call__main_.flby.next () Int)
(declare-fun call__main_.call_controleur.retard.next () Bool)
(declare-fun call__main_.call_hypothese2.ite2.next () Bool)
(declare-fun call__main_.avance0.next () Bool)
(declare-fun call__main_.flby3.next () Int)
(declare-fun call__main_.call_hypothese.c () Int)
(declare-fun call__main_.call_controleur2.diff () Int)
(declare-fun call_Sofar.flby.next () Bool)
(declare-fun call__main_._H1_.next () Bool)
(declare-fun call__main_.retard0.next () Bool)
(declare-fun call__main_.avance0 () Bool)
(declare-fun _OK_.next () Bool)
(declare-fun call__main_.call_hypothese.ok.next () Bool)
(declare-fun call__main_.call_controleur2.flby () Bool)
(declare-fun avance0.next () Bool)
(declare-fun call__main_.call_hypothese2.ite3.next () Int)
(declare-fun call__main_.nS.next () Int)
(declare-fun call_Sofar.Sofar () Bool)
(declare-fun call__main_.avance1.next () Bool)
(declare-fun ast () Bool)
(declare-fun call__main_.call_controleur.avance () Bool)
(declare-fun retard1 () Bool)
(declare-fun call__main_.call_controleur.diff () Int)
(declare-fun nB0 () Int)
(declare-fun call__main_.call_hypothese2.flby2.next () Int)
(declare-fun call__main_.call_controleur2.flby2 () Bool)
(declare-fun call__main_.call_controleur.flby2.next () Bool)
(declare-fun retard0 () Bool)
(declare-fun call__main_.call_controleur.avance.next () Bool)
(declare-fun nS () Int)
(declare-fun call__main_.ite.next () Int)
(declare-fun call__main_.call_controleur2.avance.next () Bool)
(declare-fun call__main_.call_controleur2.ite.next () Bool)
(declare-fun diff0.next () Int)
(declare-fun param__S_.next () Bool)
(declare-fun call_Sofar.Sofar.next () Bool)
(declare-fun call__main_._H0_ () Bool)
(declare-fun call_Sofar.flby () Bool)
(declare-fun diff0 () Int)
(declare-fun call__main_.call_controleur.flby2 () Bool)
(declare-fun call__main_.call_hypothese.flby.next () Bool)
(declare-fun avance1.next () Bool)
(declare-fun call__main_.retard1 () Bool)
(declare-fun call__main_.call_hypothese2.c () Int)
(declare-fun call__main_.call_controleur2.retard () Bool)
(declare-fun avance0 () Bool)
(declare-fun ast.next () Bool)
(declare-fun call__main_.call_hypothese.ite3.next () Int)
(declare-fun avance1 () Bool)
(declare-fun call__main_.call_controleur2.flby.next () Bool)
(declare-fun call__main_.nB1.next () Int)
(declare-fun call__main_.call_hypothese2.flby2 () Int)
(declare-fun call__main_.retard0 () Bool)
(declare-fun call__main_.call_hypothese.flby2 () Int)
(declare-fun nB0.next () Int)
(declare-fun call__main_.call_hypothese2.ok.next () Bool)
(declare-fun call__main_.call_controleur.ite.next () Bool)
(declare-fun call__main_._H0_.next () Bool)
(declare-fun call__main_.call_controleur2.avance () Bool)
(declare-fun param__B1_.next () Bool)
(declare-fun call__main_.nB0.next () Int)
(declare-fun call__main_._H1_ () Bool)
(declare-fun call__main_.call_hypothese2.flby.next () Bool)
(declare-fun param__B0_.next () Bool)
(declare-fun retard1.next () Bool)
(declare-fun call__main_.flby3 () Int)
(declare-fun call__main_.nB1 () Int)
(declare-fun call__main_.ast () Bool)
(declare-fun call__main_.diff1.next () Int)
(declare-fun call__main_.call_hypothese.ok () Bool)
(declare-fun call__main_.call_hypothese.ite4.next () Int)
(declare-fun call__main_.call_controleur2.retard.next () Bool)
(declare-fun call__main_.call_controleur.retard () Bool)
(declare-fun call__main_.flby2.next () Int)
(declare-fun call__main_.call_hypothese2.c.next () Int)
(declare-fun call__main_.call_hypothese.ite2.next () Bool)
(declare-fun call__main_.nS () Int)
(declare-fun call__main_.call_controleur.flby () Bool)
(declare-fun call__main_.call_hypothese.flby () Bool)
(define-fun .def_925 () Bool (= call_Sofar.Sofar.next call_Sofar.flby.next))
(define-fun .def_923 () Bool (= call__main_.call_controleur2.flby2.next call__main_.call_controleur2.retard.next))
(define-fun .def_921 () Bool (= call__main_.call_controleur2.flby.next call__main_.call_controleur2.avance.next))
(define-fun .def_914 () Int (* (- 1) call__main_.nB1.next))
(define-fun .def_917 () Int (+ .def_914 call__main_.nS.next))
(define-fun .def_918 () Int (+ call__main_.call_controleur2.diff.next .def_917))
(define-fun .def_919 () Bool (= .def_918 0))
(define-fun .def_912 () Bool (= call__main_.call_controleur.flby2.next call__main_.call_controleur.retard.next))
(define-fun .def_910 () Bool (= call__main_.call_controleur.flby.next call__main_.call_controleur.avance.next))
(define-fun .def_903 () Int (* (- 1) call__main_.nB0.next))
(define-fun .def_906 () Int (+ .def_903 call__main_.nS.next))
(define-fun .def_907 () Int (+ call__main_.call_controleur.diff.next .def_906))
(define-fun .def_908 () Bool (= .def_907 0))
(define-fun .def_901 () Bool (= call__main_.call_hypothese2.flby2.next call__main_.call_hypothese2.c.next))
(define-fun .def_898 () Bool (= call__main_.call_hypothese2.flby.next call__main_.call_hypothese2.ok.next))
(define-fun .def_896 () Bool (= call__main_.call_hypothese.flby2.next call__main_.call_hypothese.c.next))
(define-fun .def_893 () Bool (= call__main_.call_hypothese.flby.next call__main_.call_hypothese.ok.next))
(define-fun .def_891 () Bool (= call__main_._H1_.next call__main_.call_hypothese2.ok.next))
(define-fun .def_888 () Bool (= call__main_._H0_.next call__main_.call_hypothese.ok.next))
(define-fun .def_885 () Bool (= call__main_.retard1.next call__main_.call_controleur2.retard.next))
(define-fun .def_882 () Bool (= call__main_.retard0.next call__main_.call_controleur.retard.next))
(define-fun .def_879 () Bool (= call__main_.avance1.next call__main_.call_controleur2.avance.next))
(define-fun .def_876 () Bool (= call__main_.avance0.next call__main_.call_controleur.avance.next))
(define-fun .def_873 () Bool (= call__main_.call_controleur2.diff.next call__main_.diff1.next))
(define-fun .def_871 () Bool (= call__main_.call_controleur.diff.next call__main_.diff0.next))
(define-fun .def_869 () Bool (= call__main_.flby3.next call__main_.nS.next))
(define-fun .def_867 () Bool (= call__main_.flby2.next call__main_.nB1.next))
(define-fun .def_865 () Bool (= call__main_.flby.next call__main_.nB0.next))
(define-fun .def_862 () Bool (and call__main_._H0_.next call__main_._H1_.next))
(define-fun .def_863 () Bool (= call__main_.ast.next .def_862))
(define-fun .def_858 () Bool (= ast.next call__main_.ast.next))
(define-fun .def_855 () Bool (= retard1.next call__main_.retard1.next))
(define-fun .def_851 () Bool (= retard0.next call__main_.retard0.next))
(define-fun .def_847 () Bool (= call__main_.avance1.next avance1.next))
(define-fun .def_844 () Bool (= call__main_.avance0.next avance0.next))
(define-fun .def_841 () Bool (= diff1.next call__main_.diff1.next))
(define-fun .def_837 () Bool (= diff0.next call__main_.diff0.next))
(define-fun .def_833 () Bool (= nS.next call__main_.nS.next))
(define-fun .def_829 () Bool (= nB1.next call__main_.nB1.next))
(define-fun .def_825 () Bool (= nB0.next call__main_.nB0.next))
(define-fun .def_822 () Bool (= flby.next _OK_.next))
(define-fun .def_826 () Bool (and .def_822 .def_825))
(define-fun .def_830 () Bool (and .def_826 .def_829))
(define-fun .def_834 () Bool (and .def_830 .def_833))
(define-fun .def_838 () Bool (and .def_834 .def_837))
(define-fun .def_842 () Bool (and .def_838 .def_841))
(define-fun .def_845 () Bool (and .def_842 .def_844))
(define-fun .def_848 () Bool (and .def_845 .def_847))
(define-fun .def_852 () Bool (and .def_848 .def_851))
(define-fun .def_856 () Bool (and .def_852 .def_855))
(define-fun .def_859 () Bool (and .def_856 .def_858))
(define-fun .def_864 () Bool (and .def_859 .def_863))
(define-fun .def_866 () Bool (and .def_864 .def_865))
(define-fun .def_868 () Bool (and .def_866 .def_867))
(define-fun .def_870 () Bool (and .def_868 .def_869))
(define-fun .def_872 () Bool (and .def_870 .def_871))
(define-fun .def_874 () Bool (and .def_872 .def_873))
(define-fun .def_877 () Bool (and .def_874 .def_876))
(define-fun .def_880 () Bool (and .def_877 .def_879))
(define-fun .def_883 () Bool (and .def_880 .def_882))
(define-fun .def_886 () Bool (and .def_883 .def_885))
(define-fun .def_889 () Bool (and .def_886 .def_888))
(define-fun .def_892 () Bool (and .def_889 .def_891))
(define-fun .def_894 () Bool (and .def_892 .def_893))
(define-fun .def_897 () Bool (and .def_894 .def_896))
(define-fun .def_899 () Bool (and .def_897 .def_898))
(define-fun .def_902 () Bool (and .def_899 .def_901))
(define-fun .def_909 () Bool (and .def_902 .def_908))
(define-fun .def_911 () Bool (and .def_909 .def_910))
(define-fun .def_913 () Bool (and .def_911 .def_912))
(define-fun .def_920 () Bool (and .def_913 .def_919))
(define-fun .def_922 () Bool (and .def_920 .def_921))
(define-fun .def_924 () Bool (and .def_922 .def_923))
(define-fun .def_926 () Bool (and .def_924 .def_925))
(define-fun .def_601 () Bool (= call_Sofar.Sofar call_Sofar.flby))
(define-fun .def_597 () Bool (= call__main_.call_controleur2.retard call__main_.call_controleur2.flby2))
(define-fun .def_594 () Bool (= call__main_.call_controleur2.avance call__main_.call_controleur2.flby))
(define-fun .def_588 () Int (* (- 1) call__main_.call_controleur2.diff))
(define-fun .def_574 () Int (* (- 1) call__main_.nS))
(define-fun .def_589 () Int (+ .def_574 .def_588))
(define-fun .def_590 () Int (+ call__main_.nB1 .def_589))
(define-fun .def_591 () Bool (= .def_590 0))
(define-fun .def_583 () Bool (= call__main_.call_controleur.retard call__main_.call_controleur.flby2))
(define-fun .def_580 () Bool (= call__main_.call_controleur.avance call__main_.call_controleur.flby))
(define-fun .def_573 () Int (* (- 1) call__main_.call_controleur.diff))
(define-fun .def_575 () Int (+ .def_574 .def_573))
(define-fun .def_576 () Int (+ call__main_.nB0 .def_575))
(define-fun .def_577 () Bool (= .def_576 0))
(define-fun .def_568 () Bool (= call__main_.call_hypothese2.c call__main_.call_hypothese2.flby2))
(define-fun .def_564 () Bool (= call__main_.call_hypothese2.ok call__main_.call_hypothese2.flby))
(define-fun .def_561 () Bool (= call__main_.call_hypothese.c call__main_.call_hypothese.flby2))
(define-fun .def_557 () Bool (= call__main_.call_hypothese.ok call__main_.call_hypothese.flby))
(define-fun .def_554 () Bool (= call__main_._H1_ call__main_.call_hypothese2.ok))
(define-fun .def_551 () Bool (= call__main_._H0_ call__main_.call_hypothese.ok))
(define-fun .def_548 () Bool (= call__main_.retard1 call__main_.call_controleur2.retard))
(define-fun .def_545 () Bool (= call__main_.retard0 call__main_.call_controleur.retard))
(define-fun .def_542 () Bool (= call__main_.avance1 call__main_.call_controleur2.avance))
(define-fun .def_539 () Bool (= call__main_.avance0 call__main_.call_controleur.avance))
(define-fun .def_536 () Bool (= call__main_.diff1 call__main_.call_controleur2.diff))
(define-fun .def_533 () Bool (= call__main_.diff0 call__main_.call_controleur.diff))
(define-fun .def_530 () Bool (= call__main_.nS call__main_.flby3))
(define-fun .def_527 () Bool (= call__main_.nB1 call__main_.flby2))
(define-fun .def_524 () Bool (= call__main_.nB0 call__main_.flby))
(define-fun .def_520 () Bool (and call__main_._H0_ call__main_._H1_))
(define-fun .def_521 () Bool (= call__main_.ast .def_520))
(define-fun .def_516 () Bool (= call__main_.ast ast))
(define-fun .def_512 () Bool (= retard1 call__main_.retard1))
(define-fun .def_508 () Bool (= retard0 call__main_.retard0))
(define-fun .def_504 () Bool (= avance1 call__main_.avance1))
(define-fun .def_500 () Bool (= avance0 call__main_.avance0))
(define-fun .def_496 () Bool (= diff1 call__main_.diff1))
(define-fun .def_492 () Bool (= diff0 call__main_.diff0))
(define-fun .def_488 () Bool (= nS call__main_.nS))
(define-fun .def_484 () Bool (= nB1 call__main_.nB1))
(define-fun .def_480 () Bool (= nB0 call__main_.nB0))
(define-fun .def_477 () Bool (= _OK_ flby))
(define-fun .def_481 () Bool (and .def_477 .def_480))
(define-fun .def_485 () Bool (and .def_481 .def_484))
(define-fun .def_489 () Bool (and .def_485 .def_488))
(define-fun .def_493 () Bool (and .def_489 .def_492))
(define-fun .def_497 () Bool (and .def_493 .def_496))
(define-fun .def_501 () Bool (and .def_497 .def_500))
(define-fun .def_505 () Bool (and .def_501 .def_504))
(define-fun .def_509 () Bool (and .def_505 .def_508))
(define-fun .def_513 () Bool (and .def_509 .def_512))
(define-fun .def_517 () Bool (and .def_513 .def_516))
(define-fun .def_522 () Bool (and .def_517 .def_521))
(define-fun .def_525 () Bool (and .def_522 .def_524))
(define-fun .def_528 () Bool (and .def_525 .def_527))
(define-fun .def_531 () Bool (and .def_528 .def_530))
(define-fun .def_534 () Bool (and .def_531 .def_533))
(define-fun .def_537 () Bool (and .def_534 .def_536))
(define-fun .def_540 () Bool (and .def_537 .def_539))
(define-fun .def_543 () Bool (and .def_540 .def_542))
(define-fun .def_546 () Bool (and .def_543 .def_545))
(define-fun .def_549 () Bool (and .def_546 .def_548))
(define-fun .def_552 () Bool (and .def_549 .def_551))
(define-fun .def_555 () Bool (and .def_552 .def_554))
(define-fun .def_558 () Bool (and .def_555 .def_557))
(define-fun .def_562 () Bool (and .def_558 .def_561))
(define-fun .def_565 () Bool (and .def_562 .def_564))
(define-fun .def_569 () Bool (and .def_565 .def_568))
(define-fun .def_578 () Bool (and .def_569 .def_577))
(define-fun .def_581 () Bool (and .def_578 .def_580))
(define-fun .def_584 () Bool (and .def_581 .def_583))
(define-fun .def_592 () Bool (and .def_584 .def_591))
(define-fun .def_595 () Bool (and .def_592 .def_594))
(define-fun .def_598 () Bool (and .def_595 .def_597))
(define-fun .def_602 () Bool (and .def_598 .def_601))
(define-fun .def_927 () Bool (and .def_602 .def_926))
(define-fun .def_817 () Bool (or call_Sofar.Sofar ast.next))
(define-fun .def_819 () Bool (= .def_817 call_Sofar.flby.next))
(define-fun .def_814 () Bool (= call__main_.call_controleur2.ite2.next call__main_.call_controleur2.flby2.next))
(define-fun .def_811 () Bool (= call__main_.call_controleur2.ite.next call__main_.call_controleur2.flby.next))
(define-fun .def_804 () Bool (<= 0 call__main_.call_controleur2.diff.next))
(define-fun .def_805 () Bool (not .def_804))
(define-fun .def_806 () Bool (= call__main_.call_controleur2.ite2.next .def_805))
(define-fun .def_803 () Bool (not call__main_.call_controleur2.retard))
(define-fun .def_807 () Bool (or .def_803 .def_806))
(define-fun .def_798 () Bool (<= call__main_.call_controleur2.diff.next (- 10)))
(define-fun .def_800 () Bool (= .def_798 call__main_.call_controleur2.ite2.next))
(define-fun .def_801 () Bool (or call__main_.call_controleur2.retard .def_800))
(define-fun .def_794 () Bool (<= 10 call__main_.call_controleur2.diff.next))
(define-fun .def_795 () Bool (= call__main_.call_controleur2.ite.next .def_794))
(define-fun .def_796 () Bool (or call__main_.call_controleur2.avance .def_795))
(define-fun .def_789 () Bool (<= call__main_.call_controleur2.diff.next 0))
(define-fun .def_790 () Bool (not .def_789))
(define-fun .def_792 () Bool (= .def_790 call__main_.call_controleur2.ite.next))
(define-fun .def_787 () Bool (not call__main_.call_controleur2.avance))
(define-fun .def_793 () Bool (or .def_787 .def_792))
(define-fun .def_797 () Bool (and .def_793 .def_796))
(define-fun .def_802 () Bool (and .def_797 .def_801))
(define-fun .def_808 () Bool (and .def_802 .def_807))
(define-fun .def_785 () Bool (= call__main_.call_controleur.ite2.next call__main_.call_controleur.flby2.next))
(define-fun .def_782 () Bool (= call__main_.call_controleur.ite.next call__main_.call_controleur.flby.next))
(define-fun .def_775 () Bool (<= 0 call__main_.call_controleur.diff.next))
(define-fun .def_776 () Bool (not .def_775))
(define-fun .def_777 () Bool (= call__main_.call_controleur.ite2.next .def_776))
(define-fun .def_774 () Bool (not call__main_.call_controleur.retard))
(define-fun .def_778 () Bool (or .def_774 .def_777))
(define-fun .def_769 () Bool (<= call__main_.call_controleur.diff.next (- 10)))
(define-fun .def_771 () Bool (= .def_769 call__main_.call_controleur.ite2.next))
(define-fun .def_772 () Bool (or call__main_.call_controleur.retard .def_771))
(define-fun .def_765 () Bool (<= 10 call__main_.call_controleur.diff.next))
(define-fun .def_766 () Bool (= call__main_.call_controleur.ite.next .def_765))
(define-fun .def_767 () Bool (or call__main_.call_controleur.avance .def_766))
(define-fun .def_760 () Bool (<= call__main_.call_controleur.diff.next 0))
(define-fun .def_761 () Bool (not .def_760))
(define-fun .def_763 () Bool (= .def_761 call__main_.call_controleur.ite.next))
(define-fun .def_758 () Bool (not call__main_.call_controleur.avance))
(define-fun .def_764 () Bool (or .def_758 .def_763))
(define-fun .def_768 () Bool (and .def_764 .def_767))
(define-fun .def_773 () Bool (and .def_768 .def_772))
(define-fun .def_779 () Bool (and .def_773 .def_778))
(define-fun .def_756 () Bool (= call__main_.call_hypothese2.ite4.next call__main_.call_hypothese2.flby2.next))
(define-fun .def_751 () Bool (and call__main_.call_hypothese2.ite2.next call__main_.call_hypothese2.ite.next))
(define-fun .def_753 () Bool (= .def_751 call__main_.call_hypothese2.flby.next))
(define-fun .def_635 () Bool (<= 9 call__main_.call_hypothese2.c))
(define-fun .def_749 () Bool (or call__main_.call_hypothese2.ite2.next .def_635))
(define-fun .def_747 () Bool (= call__main_.call_hypothese.ite4.next call__main_.call_hypothese.flby2.next))
(define-fun .def_742 () Bool (and call__main_.call_hypothese.ite2.next call__main_.call_hypothese.ite.next))
(define-fun .def_744 () Bool (= .def_742 call__main_.call_hypothese.flby.next))
(define-fun .def_660 () Bool (<= 9 call__main_.call_hypothese.c))
(define-fun .def_740 () Bool (or call__main_.call_hypothese.ite2.next .def_660))
(define-fun .def_738 () Bool (= call__main_.ite3.next call__main_.flby3.next))
(define-fun .def_735 () Bool (= call__main_.ite2.next call__main_.flby2.next))
(define-fun .def_732 () Bool (= call__main_.ite.next call__main_.flby.next))
(define-fun .def_729 () Bool (or call__main_.retard1 call__main_.call_hypothese2.ite.next))
(define-fun .def_727 () Bool (or call__main_.retard0 call__main_.call_hypothese.ite.next))
(define-fun .def_720 () Bool (and call__main_.avance1 call__main_.avance1.next))
(define-fun .def_723 () Bool (not .def_720))
(define-fun .def_722 () Bool (= call__main_.call_hypothese2.ite3.next call__main_.call_hypothese2.ite4.next))
(define-fun .def_724 () Bool (or .def_722 .def_723))
(define-fun .def_718 () Bool (= call__main_.call_hypothese2.ite4.next 0))
(define-fun .def_721 () Bool (or .def_718 .def_720))
(define-fun .def_725 () Bool (and .def_721 .def_724))
(define-fun .def_710 () Bool (and call__main_.avance0 call__main_.avance0.next))
(define-fun .def_713 () Bool (not .def_710))
(define-fun .def_712 () Bool (= call__main_.call_hypothese.ite3.next call__main_.call_hypothese.ite4.next))
(define-fun .def_714 () Bool (or .def_712 .def_713))
(define-fun .def_708 () Bool (= call__main_.call_hypothese.ite4.next 0))
(define-fun .def_711 () Bool (or .def_708 .def_710))
(define-fun .def_715 () Bool (and .def_711 .def_714))
(define-fun .def_701 () Bool (<= diff0 20))
(define-fun .def_700 () Bool (<= (- 10) diff0))
(define-fun .def_702 () Bool (and .def_700 .def_701))
(define-fun .def_699 () Bool (not call_Sofar.Sofar.next))
(define-fun .def_703 () Bool (or .def_699 .def_702))
(define-fun .def_705 () Bool (= .def_703 flby.next))
(define-fun .def_694 () Bool (= call__main_.nS call__main_.ite3.next))
(define-fun .def_695 () Bool (or param__S_.next .def_694))
(define-fun .def_689 () Int (* (- 1) call__main_.ite3.next))
(define-fun .def_690 () Int (+ call__main_.nS .def_689))
(define-fun .def_691 () Bool (= .def_690 (- 1)))
(define-fun .def_678 () Bool (not param__S_.next))
(define-fun .def_692 () Bool (or .def_678 .def_691))
(define-fun .def_685 () Bool (not call__main_.retard0))
(define-fun .def_684 () Bool (= .def_678 call__main_.call_hypothese.ite.next))
(define-fun .def_686 () Bool (or .def_684 .def_685))
(define-fun .def_681 () Bool (not call__main_.retard1))
(define-fun .def_680 () Bool (= .def_678 call__main_.call_hypothese2.ite.next))
(define-fun .def_682 () Bool (or .def_680 .def_681))
(define-fun .def_687 () Bool (and .def_682 .def_686))
(define-fun .def_693 () Bool (and .def_687 .def_692))
(define-fun .def_696 () Bool (and .def_693 .def_695))
(define-fun .def_673 () Bool (= call__main_.nB0 call__main_.ite.next))
(define-fun .def_674 () Bool (or param__B0_.next .def_673))
(define-fun .def_668 () Int (* (- 1) call__main_.ite.next))
(define-fun .def_669 () Int (+ call__main_.nB0 .def_668))
(define-fun .def_670 () Bool (= .def_669 (- 1)))
(define-fun .def_656 () Bool (not param__B0_.next))
(define-fun .def_671 () Bool (or .def_656 .def_670))
(define-fun .def_664 () Bool (= call__main_.call_hypothese.c call__main_.call_hypothese.ite3.next))
(define-fun .def_665 () Bool (or param__B0_.next .def_664))
(define-fun .def_661 () Bool (not .def_660))
(define-fun .def_659 () Bool (= .def_656 call__main_.call_hypothese.ite2.next))
(define-fun .def_662 () Bool (or .def_659 .def_661))
(define-fun .def_652 () Int (* (- 1) call__main_.call_hypothese.ite3.next))
(define-fun .def_653 () Int (+ call__main_.call_hypothese.c .def_652))
(define-fun .def_654 () Bool (= .def_653 (- 2)))
(define-fun .def_657 () Bool (or .def_654 .def_656))
(define-fun .def_663 () Bool (and .def_657 .def_662))
(define-fun .def_666 () Bool (and .def_663 .def_665))
(define-fun .def_672 () Bool (and .def_666 .def_671))
(define-fun .def_675 () Bool (and .def_672 .def_674))
(define-fun .def_648 () Bool (= call__main_.nB1 call__main_.ite2.next))
(define-fun .def_649 () Bool (or param__B1_.next .def_648))
(define-fun .def_643 () Int (* (- 1) call__main_.ite2.next))
(define-fun .def_644 () Int (+ call__main_.nB1 .def_643))
(define-fun .def_645 () Bool (= .def_644 (- 1)))
(define-fun .def_631 () Bool (not param__B1_.next))
(define-fun .def_646 () Bool (or .def_631 .def_645))
(define-fun .def_639 () Bool (= call__main_.call_hypothese2.c call__main_.call_hypothese2.ite3.next))
(define-fun .def_640 () Bool (or param__B1_.next .def_639))
(define-fun .def_636 () Bool (not .def_635))
(define-fun .def_634 () Bool (= .def_631 call__main_.call_hypothese2.ite2.next))
(define-fun .def_637 () Bool (or .def_634 .def_636))
(define-fun .def_627 () Int (* (- 1) call__main_.call_hypothese2.ite3.next))
(define-fun .def_628 () Int (+ call__main_.call_hypothese2.c .def_627))
(define-fun .def_629 () Bool (= .def_628 (- 2)))
(define-fun .def_632 () Bool (or .def_629 .def_631))
(define-fun .def_638 () Bool (and .def_632 .def_637))
(define-fun .def_641 () Bool (and .def_638 .def_640))
(define-fun .def_647 () Bool (and .def_641 .def_646))
(define-fun .def_650 () Bool (and .def_647 .def_649))
(define-fun .def_676 () Bool (and .def_650 .def_675))
(define-fun .def_697 () Bool (and .def_676 .def_696))
(define-fun .def_706 () Bool (and .def_697 .def_705))
(define-fun .def_716 () Bool (and .def_706 .def_715))
(define-fun .def_726 () Bool (and .def_716 .def_725))
(define-fun .def_728 () Bool (and .def_726 .def_727))
(define-fun .def_730 () Bool (and .def_728 .def_729))
(define-fun .def_733 () Bool (and .def_730 .def_732))
(define-fun .def_736 () Bool (and .def_733 .def_735))
(define-fun .def_739 () Bool (and .def_736 .def_738))
(define-fun .def_741 () Bool (and .def_739 .def_740))
(define-fun .def_745 () Bool (and .def_741 .def_744))
(define-fun .def_748 () Bool (and .def_745 .def_747))
(define-fun .def_750 () Bool (and .def_748 .def_749))
(define-fun .def_754 () Bool (and .def_750 .def_753))
(define-fun .def_757 () Bool (and .def_754 .def_756))
(define-fun .def_780 () Bool (and .def_757 .def_779))
(define-fun .def_783 () Bool (and .def_780 .def_782))
(define-fun .def_786 () Bool (and .def_783 .def_785))
(define-fun .def_809 () Bool (and .def_786 .def_808))
(define-fun .def_812 () Bool (and .def_809 .def_811))
(define-fun .def_815 () Bool (and .def_812 .def_814))
(define-fun .def_820 () Bool (and .def_815 .def_819))
(define-fun .def_928 () Bool (and .def_820 .def_927))
(assert .def_928)
